solution status: optimal solution found
objective value:                     112133.638749631
d11(0,0)                                            1 	(obj:0)
d11(1,1)                                            1 	(obj:0)
d11(2,4)                                            1 	(obj:0)
d11(2,7)                                            1 	(obj:0)
d11(2,8)                                            1 	(obj:0)
d11(2,10)                                           1 	(obj:0)
d11(2,11)                                           1 	(obj:0)
d11(3,13)                                           1 	(obj:0)
d11(3,14)                                           1 	(obj:0)
d11(3,16)                                           1 	(obj:0)
d11(3,17)                                           1 	(obj:0)
d11(3,19)                                           1 	(obj:0)
d11(3,20)                                           1 	(obj:0)
d11(3,22)                                           1 	(obj:0)
d11(3,23)                                           1 	(obj:0)
d11(3,25)                                           1 	(obj:0)
d11(3,26)                                           1 	(obj:0)
d11(3,28)                                           1 	(obj:0)
d11(3,29)                                           1 	(obj:0)
d11(3,31)                                           1 	(obj:0)
d11(3,32)                                           1 	(obj:0)
d11(3,34)                                           1 	(obj:0)
d11(3,35)                                           1 	(obj:0)
d11(3,37)                                           1 	(obj:0)
d11(3,38)                                           1 	(obj:0)
d12(1,3)                                            1 	(obj:0)
d12(2,6)                                            1 	(obj:0)
d12(2,9)                                            1 	(obj:0)
d12(2,12)                                           1 	(obj:0)
d21(2,4)                                            1 	(obj:0)
d21(3,13)                                           1 	(obj:0)
d21(3,14)                                           1 	(obj:0)
d21(3,15)                                           1 	(obj:0)
d21(3,16)                                           1 	(obj:0)
d21(3,17)                                           1 	(obj:0)
d21(3,19)                                           1 	(obj:0)
d21(3,22)                                           1 	(obj:0)
d21(3,23)                                           1 	(obj:0)
d21(3,25)                                           1 	(obj:0)
d21(3,31)                                           1 	(obj:0)
STE(1,1)                             6248.23399666665 	(obj:0)
STE(0,0)                                         7875 	(obj:0)
STE(1,2)                                         7245 	(obj:0)
STE(1,3)                             8157.56333384999 	(obj:0)
STE(2,4)                             4621.46799333336 	(obj:0)
STE(2,5)                             5618.23399666665 	(obj:0)
STE(2,6)                             6530.79733051664 	(obj:0)
STE(2,7)                              5618.2339966667 	(obj:0)
STE(2,8)                                         6615 	(obj:0)
STE(2,9)                             7527.56333384998 	(obj:0)
STE(2,10)                             6530.7973305167 	(obj:0)
STE(2,11)                            7527.56333384999 	(obj:0)
STE(2,12)                            8440.12666769997 	(obj:0)
STE(3,13)                            1818.90465948337 	(obj:0)
STE(3,14)                            2815.67066281666 	(obj:0)
STE(3,15)                            3991.46799333336 	(obj:0)
STE(3,16)                            2815.67066281666 	(obj:0)
STE(3,17)                            3812.43666614995 	(obj:0)
STE(3,18)                            4988.23399666665 	(obj:0)
STE(3,19)                            3728.23399666665 	(obj:0)
STE(3,20)                            4724.99999999994 	(obj:0)
STE(3,21)                            5900.79733051664 	(obj:0)
STE(3,22)                            2815.67066281671 	(obj:0)
STE(3,23)                            3812.43666615001 	(obj:0)
STE(3,24)                             4988.2339966667 	(obj:0)
STE(3,25)                            3812.43666615001 	(obj:0)
STE(3,26)                             4809.2026694833 	(obj:0)
STE(3,27)                                        5985 	(obj:0)
STE(3,28)                                        4725 	(obj:0)
STE(3,29)                            5721.76600333329 	(obj:0)
STE(3,30)                            6897.56333384998 	(obj:0)
STE(3,31)                            3728.23399666671 	(obj:0)
STE(3,32)                                        4725 	(obj:0)
STE(3,33)                             5900.7973305167 	(obj:0)
STE(3,34)                                        4725 	(obj:0)
STE(3,35)                            5721.76600333329 	(obj:0)
STE(3,36)                            6897.56333384999 	(obj:0)
STE(3,37)                            5637.56333384999 	(obj:0)
STE(3,38)                            6634.32933718328 	(obj:0)
STE(3,39)                            7810.12666769997 	(obj:0)
y1(3,23)                             1058.21759746503 	(obj:0)
y1(3,25)                             1955.30700046499 	(obj:0)
y1(3,26)                             1058.21759746503 	(obj:0)
y1(3,28)                             1955.30700046499 	(obj:0)
y1(3,29)                             1058.21759746503 	(obj:0)
y1(3,31)                             1955.30700046499 	(obj:0)
y1(3,32)                             1058.21759746503 	(obj:0)
y1(3,34)                             1955.30700046499 	(obj:0)
y1(3,35)                             1058.21759746503 	(obj:0)
y1(3,37)                             1955.30700046499 	(obj:0)
y1(3,38)                             1058.21759746503 	(obj:0)
BG(3)                                1166.30852163949 	(obj:10)
WB(1)                                3199.95851117552 	(obj:0)
AVE(1)                               3199.95851117552 	(obj:0)
WB(2)                                3265.15049132519 	(obj:0)
AVE(2)                               3265.15049132519 	(obj:0)
AVE(3)                               3291.35535332476 	(obj:0)
WG(3)                                3291.35535332476 	(obj:10)
BG(1)                                         3377.85 	(obj:10)
BG(2)                                         3377.85 	(obj:10)
y1(1,1)                              897.089403000015 	(obj:0)
y1(2,4)                              897.089402999962 	(obj:0)
y1(2,7)                               897.08940299997 	(obj:0)
y1(2,10)                             897.089402999962 	(obj:0)
y1(3,13)                             1955.30700046499 	(obj:0)
y1(3,14)                             1058.21759746503 	(obj:0)
y1(3,16)                             1955.30700046499 	(obj:0)
y1(3,17)                             1058.21759746503 	(obj:0)
y1(3,19)                             1955.30700046499 	(obj:0)
y1(3,20)                             1058.21759746503 	(obj:0)
y1(3,22)                             1955.30700046499 	(obj:0)
y2(1,3)                              960.592982999986 	(obj:0)
y2(2,6)                              960.592982999986 	(obj:0)
y2(2,9)                               960.59298299998 	(obj:0)
y2(2,12)                             960.592982999986 	(obj:0)
